problem_generation/data/GISP/train/er_n=60_m=1035_p=0.60_SET2_setparam=100.00_alpha=0.50_379.sol
objective value:                                 1176
x10                                                 1 	(obj:100)
x13                                                 1 	(obj:100)
x21                                                 1 	(obj:100)
x24                                                 1 	(obj:100)
x25                                                 1 	(obj:100)
x28                                                 1 	(obj:100)
x34                                                 1 	(obj:100)
x39                                                 1 	(obj:100)
x44                                                 1 	(obj:100)
x48                                                 1 	(obj:100)
x51                                                 1 	(obj:100)
x58                                                 1 	(obj:100)
y28_58                                              1 	(obj:-1)
y25_34                                              1 	(obj:-1)
y48_58                                              1 	(obj:-1)
y44_51                                              1 	(obj:-1)
y28_48                                              1 	(obj:-1)
y25_28                                              1 	(obj:-1)
y13_21                                              1 	(obj:-1)
y34_48                                              1 	(obj:-1)
y34_51                                              1 	(obj:-1)
y10_34                                              1 	(obj:-1)
y28_51                                              1 	(obj:-1)
y21_39                                              1 	(obj:-1)
y10_51                                              1 	(obj:-1)
y24_48                                              1 	(obj:-1)
y21_24                                              1 	(obj:-1)
y13_34                                              1 	(obj:-1)
y24_34                                              1 	(obj:-1)
y21_28                                              1 	(obj:-1)
y39_58                                              1 	(obj:-1)
y24_51                                              1 	(obj:-1)
y39_44                                              1 	(obj:-1)
y44_58                                              1 	(obj:-1)
y25_44                                              1 	(obj:-1)
y25_39                                              1 	(obj:-1)
